&CONTROL
	calculation = 'scf'
	disk_io = 'high'
	lkpoint_dir = '.FALSE.'
	max_seconds = 4.0
	outdir = './'
	pseudo_dir = './'
	title = 'graphene'
\

&SYSTEM
	assume_isolated = 'esm'
	exxdiv_treatment = 'vcut_spherical'
	gcscf_beta = 50.00
	noinv = '.TRUE.'
\

&ELECTRONS
	adaptive_thr = '.TRUE.'
	conv_thr_multi = 4.0
	mixing_mode = 'TF'
\

&IONS
	pot_extrapolation = 'atomic'
\

