&CONTROL
   calculation = 'scf'
   prefix = 'grafeno_1',
   pseudo_dir = './examples/pseudos',
   outdir = './examples/output/example_3'
/
&system
    ibrav = 0,
    celldm(1) = 2.46, ! Longitud de celda en Ångström
    nat = 18,
    ntyp = 1,
    ecutwfc = 45.0,
    ecutrho = 360.0
/
&electrons
    conv_thr = 1.0d-8,
    mixing_beta = 0.7
/
ATOMIC_SPECIES
    C  12.0107  C.pz-vbc.UPF
CELL_PARAMETERS {alat}
    4.92 0.00 0.00
    0.00 7.38 0.00
    0.00 0.00 10.00
ATOMIC_POSITIONS {alat}
    C 0.000000 0.000000 0.000000
    C 0.666667 0.333333 0.000000
    C 1.230000 1.230000 0.000000
    C 1.896667 1.563333 0.000000
    C 2.460000 2.460000 0.000000
    C 3.126667 2.793333 0.000000
    C 3.690000 3.690000 0.000000
    C 4.356667 4.023333 0.000000
    C 0.000000 2.460000 0.000000
    C 0.666667 2.793333 0.000000
    C 1.230000 3.690000 0.000000
    C 1.896667 4.023333 0.000000
    C 2.460000 4.920000 0.000000
    C 3.126667 5.253333 0.000000
    C 3.690000 6.150000 0.000000
    C 4.356667 6.483333 0.000000
    C 0.000000 4.920000 0.000000
    C 0.666667 5.253333 0.000000
K_POINTS automatic
    6 6 1 0 0 0
